Max: 20 x1 + 15 x2 +25 x3 - 6000 y1p - 6000 y1n - 3000 y2n;

/* Constraints*/

/* Employment Level*/
6x1 + 4x2 + 5x3 -y1p + y1n = 50;

/* Earning Level*/
8x1 + 7x2 + 5x3 -y2p +y2n = 75;

/* Non Negativity Constraints*/
x1 >= 0:
x2 >= 0;
x3 >= 0;
y1p>= 0;
y1n>= 0;
y2p>= 0;
y2n>= 0;